NAME: gen10
COMMENT: TSPLIB instance with 10 cities in Minas Gerais, Brazil
TYPE: TSP
DIMENSION: 10
EDGE_WEIGHT_TYPE: GEO

NODE_COORD_SECTION
1  -19.9167  -43.9345
2  -19.8157  -43.9542
3  -19.4671  -44.2411
4  -21.1326  -42.3688
5  -20.1461  -44.8849
6  -19.7376  -45.5434
7  -18.9137  -48.2754
8  -21.7629  -43.3496
9  -19.6229  -43.2333
10 -19.9846  -44.1991
EOF
